c 9x9
p cnf 81 1024
1 2 10 0
-1 -2 10 0
-1 2 -10 0
1 -2 -10 0
1 2 3 11 0
-1 -2 3 11 0
-1 2 -3 11 0
-1 2 3 -11 0
1 -2 -3 11 0
1 -2 3 -11 0
1 2 -3 -11 0
-1 -2 -3 -11 0
2 3 4 12 0
-2 -3 4 12 0
-2 3 -4 12 0
-2 3 4 -12 0
2 -3 -4 12 0
2 -3 4 -12 0
2 3 -4 -12 0
-2 -3 -4 -12 0
3 4 5 13 0
-3 -4 5 13 0
-3 4 -5 13 0
-3 4 5 -13 0
3 -4 -5 13 0
3 -4 5 -13 0
3 4 -5 -13 0
-3 -4 -5 -13 0
4 5 6 14 0
-4 -5 6 14 0
-4 5 -6 14 0
-4 5 6 -14 0
4 -5 -6 14 0
4 -5 6 -14 0
4 5 -6 -14 0
-4 -5 -6 -14 0
5 6 7 15 0
-5 -6 7 15 0
-5 6 -7 15 0
-5 6 7 -15 0
5 -6 -7 15 0
5 -6 7 -15 0
5 6 -7 -15 0
-5 -6 -7 -15 0
6 7 8 16 0
-6 -7 8 16 0
-6 7 -8 16 0
-6 7 8 -16 0
6 -7 -8 16 0
6 -7 8 -16 0
6 7 -8 -16 0
-6 -7 -8 -16 0
7 8 9 17 0
-7 -8 9 17 0
-7 8 -9 17 0
-7 8 9 -17 0
7 -8 -9 17 0
7 -8 9 -17 0
7 8 -9 -17 0
-7 -8 -9 -17 0
8 9 18 0
-8 -9 18 0
-8 9 -18 0
8 -9 -18 0
1 10 11 19 0
-1 -10 11 19 0
-1 10 -11 19 0
-1 10 11 -19 0
1 -10 -11 19 0
1 -10 11 -19 0
1 10 -11 -19 0
-1 -10 -11 -19 0
2 10 11 12 20 0
-2 -10 11 12 20 0
-2 10 -11 12 20 0
-2 10 11 -12 20 0
-2 10 11 12 -20 0
2 -10 -11 12 20 0
2 -10 11 -12 20 0
2 -10 11 12 -20 0
2 10 -11 -12 20 0
2 10 -11 12 -20 0
2 10 11 -12 -20 0
-2 -10 -11 -12 20 0
-2 -10 -11 12 -20 0
-2 -10 11 -12 -20 0
-2 10 -11 -12 -20 0
2 -10 -11 -12 -20 0
3 11 12 13 21 0
-3 -11 12 13 21 0
-3 11 -12 13 21 0
-3 11 12 -13 21 0
-3 11 12 13 -21 0
3 -11 -12 13 21 0
3 -11 12 -13 21 0
3 -11 12 13 -21 0
3 11 -12 -13 21 0
3 11 -12 13 -21 0
3 11 12 -13 -21 0
-3 -11 -12 -13 21 0
-3 -11 -12 13 -21 0
-3 -11 12 -13 -21 0
-3 11 -12 -13 -21 0
3 -11 -12 -13 -21 0
4 12 13 14 22 0
-4 -12 13 14 22 0
-4 12 -13 14 22 0
-4 12 13 -14 22 0
-4 12 13 14 -22 0
4 -12 -13 14 22 0
4 -12 13 -14 22 0
4 -12 13 14 -22 0
4 12 -13 -14 22 0
4 12 -13 14 -22 0
4 12 13 -14 -22 0
-4 -12 -13 -14 22 0
-4 -12 -13 14 -22 0
-4 -12 13 -14 -22 0
-4 12 -13 -14 -22 0
4 -12 -13 -14 -22 0
5 13 14 15 23 0
-5 -13 14 15 23 0
-5 13 -14 15 23 0
-5 13 14 -15 23 0
-5 13 14 15 -23 0
5 -13 -14 15 23 0
5 -13 14 -15 23 0
5 -13 14 15 -23 0
5 13 -14 -15 23 0
5 13 -14 15 -23 0
5 13 14 -15 -23 0
-5 -13 -14 -15 23 0
-5 -13 -14 15 -23 0
-5 -13 14 -15 -23 0
-5 13 -14 -15 -23 0
5 -13 -14 -15 -23 0
6 14 15 16 24 0
-6 -14 15 16 24 0
-6 14 -15 16 24 0
-6 14 15 -16 24 0
-6 14 15 16 -24 0
6 -14 -15 16 24 0
6 -14 15 -16 24 0
6 -14 15 16 -24 0
6 14 -15 -16 24 0
6 14 -15 16 -24 0
6 14 15 -16 -24 0
-6 -14 -15 -16 24 0
-6 -14 -15 16 -24 0
-6 -14 15 -16 -24 0
-6 14 -15 -16 -24 0
6 -14 -15 -16 -24 0
7 15 16 17 25 0
-7 -15 16 17 25 0
-7 15 -16 17 25 0
-7 15 16 -17 25 0
-7 15 16 17 -25 0
7 -15 -16 17 25 0
7 -15 16 -17 25 0
7 -15 16 17 -25 0
7 15 -16 -17 25 0
7 15 -16 17 -25 0
7 15 16 -17 -25 0
-7 -15 -16 -17 25 0
-7 -15 -16 17 -25 0
-7 -15 16 -17 -25 0
-7 15 -16 -17 -25 0
7 -15 -16 -17 -25 0
8 16 17 18 26 0
-8 -16 17 18 26 0
-8 16 -17 18 26 0
-8 16 17 -18 26 0
-8 16 17 18 -26 0
8 -16 -17 18 26 0
8 -16 17 -18 26 0
8 -16 17 18 -26 0
8 16 -17 -18 26 0
8 16 -17 18 -26 0
8 16 17 -18 -26 0
-8 -16 -17 -18 26 0
-8 -16 -17 18 -26 0
-8 -16 17 -18 -26 0
-8 16 -17 -18 -26 0
8 -16 -17 -18 -26 0
9 17 18 27 0
-9 -17 18 27 0
-9 17 -18 27 0
-9 17 18 -27 0
9 -17 -18 27 0
9 -17 18 -27 0
9 17 -18 -27 0
-9 -17 -18 -27 0
10 19 20 28 0
-10 -19 20 28 0
-10 19 -20 28 0
-10 19 20 -28 0
10 -19 -20 28 0
10 -19 20 -28 0
10 19 -20 -28 0
-10 -19 -20 -28 0
11 19 20 21 29 0
-11 -19 20 21 29 0
-11 19 -20 21 29 0
-11 19 20 -21 29 0
-11 19 20 21 -29 0
11 -19 -20 21 29 0
11 -19 20 -21 29 0
11 -19 20 21 -29 0
11 19 -20 -21 29 0
11 19 -20 21 -29 0
11 19 20 -21 -29 0
-11 -19 -20 -21 29 0
-11 -19 -20 21 -29 0
-11 -19 20 -21 -29 0
-11 19 -20 -21 -29 0
11 -19 -20 -21 -29 0
12 20 21 22 30 0
-12 -20 21 22 30 0
-12 20 -21 22 30 0
-12 20 21 -22 30 0
-12 20 21 22 -30 0
12 -20 -21 22 30 0
12 -20 21 -22 30 0
12 -20 21 22 -30 0
12 20 -21 -22 30 0
12 20 -21 22 -30 0
12 20 21 -22 -30 0
-12 -20 -21 -22 30 0
-12 -20 -21 22 -30 0
-12 -20 21 -22 -30 0
-12 20 -21 -22 -30 0
12 -20 -21 -22 -30 0
13 21 22 23 31 0
-13 -21 22 23 31 0
-13 21 -22 23 31 0
-13 21 22 -23 31 0
-13 21 22 23 -31 0
13 -21 -22 23 31 0
13 -21 22 -23 31 0
13 -21 22 23 -31 0
13 21 -22 -23 31 0
13 21 -22 23 -31 0
13 21 22 -23 -31 0
-13 -21 -22 -23 31 0
-13 -21 -22 23 -31 0
-13 -21 22 -23 -31 0
-13 21 -22 -23 -31 0
13 -21 -22 -23 -31 0
14 22 23 24 32 0
-14 -22 23 24 32 0
-14 22 -23 24 32 0
-14 22 23 -24 32 0
-14 22 23 24 -32 0
14 -22 -23 24 32 0
14 -22 23 -24 32 0
14 -22 23 24 -32 0
14 22 -23 -24 32 0
14 22 -23 24 -32 0
14 22 23 -24 -32 0
-14 -22 -23 -24 32 0
-14 -22 -23 24 -32 0
-14 -22 23 -24 -32 0
-14 22 -23 -24 -32 0
14 -22 -23 -24 -32 0
15 23 24 25 33 0
-15 -23 24 25 33 0
-15 23 -24 25 33 0
-15 23 24 -25 33 0
-15 23 24 25 -33 0
15 -23 -24 25 33 0
15 -23 24 -25 33 0
15 -23 24 25 -33 0
15 23 -24 -25 33 0
15 23 -24 25 -33 0
15 23 24 -25 -33 0
-15 -23 -24 -25 33 0
-15 -23 -24 25 -33 0
-15 -23 24 -25 -33 0
-15 23 -24 -25 -33 0
15 -23 -24 -25 -33 0
16 24 25 26 34 0
-16 -24 25 26 34 0
-16 24 -25 26 34 0
-16 24 25 -26 34 0
-16 24 25 26 -34 0
16 -24 -25 26 34 0
16 -24 25 -26 34 0
16 -24 25 26 -34 0
16 24 -25 -26 34 0
16 24 -25 26 -34 0
16 24 25 -26 -34 0
-16 -24 -25 -26 34 0
-16 -24 -25 26 -34 0
-16 -24 25 -26 -34 0
-16 24 -25 -26 -34 0
16 -24 -25 -26 -34 0
17 25 26 27 35 0
-17 -25 26 27 35 0
-17 25 -26 27 35 0
-17 25 26 -27 35 0
-17 25 26 27 -35 0
17 -25 -26 27 35 0
17 -25 26 -27 35 0
17 -25 26 27 -35 0
17 25 -26 -27 35 0
17 25 -26 27 -35 0
17 25 26 -27 -35 0
-17 -25 -26 -27 35 0
-17 -25 -26 27 -35 0
-17 -25 26 -27 -35 0
-17 25 -26 -27 -35 0
17 -25 -26 -27 -35 0
18 26 27 36 0
-18 -26 27 36 0
-18 26 -27 36 0
-18 26 27 -36 0
18 -26 -27 36 0
18 -26 27 -36 0
18 26 -27 -36 0
-18 -26 -27 -36 0
19 28 29 37 0
-19 -28 29 37 0
-19 28 -29 37 0
-19 28 29 -37 0
19 -28 -29 37 0
19 -28 29 -37 0
19 28 -29 -37 0
-19 -28 -29 -37 0
20 28 29 30 38 0
-20 -28 29 30 38 0
-20 28 -29 30 38 0
-20 28 29 -30 38 0
-20 28 29 30 -38 0
20 -28 -29 30 38 0
20 -28 29 -30 38 0
20 -28 29 30 -38 0
20 28 -29 -30 38 0
20 28 -29 30 -38 0
20 28 29 -30 -38 0
-20 -28 -29 -30 38 0
-20 -28 -29 30 -38 0
-20 -28 29 -30 -38 0
-20 28 -29 -30 -38 0
20 -28 -29 -30 -38 0
21 29 30 31 39 0
-21 -29 30 31 39 0
-21 29 -30 31 39 0
-21 29 30 -31 39 0
-21 29 30 31 -39 0
21 -29 -30 31 39 0
21 -29 30 -31 39 0
21 -29 30 31 -39 0
21 29 -30 -31 39 0
21 29 -30 31 -39 0
21 29 30 -31 -39 0
-21 -29 -30 -31 39 0
-21 -29 -30 31 -39 0
-21 -29 30 -31 -39 0
-21 29 -30 -31 -39 0
21 -29 -30 -31 -39 0
22 30 31 32 40 0
-22 -30 31 32 40 0
-22 30 -31 32 40 0
-22 30 31 -32 40 0
-22 30 31 32 -40 0
22 -30 -31 32 40 0
22 -30 31 -32 40 0
22 -30 31 32 -40 0
22 30 -31 -32 40 0
22 30 -31 32 -40 0
22 30 31 -32 -40 0
-22 -30 -31 -32 40 0
-22 -30 -31 32 -40 0
-22 -30 31 -32 -40 0
-22 30 -31 -32 -40 0
22 -30 -31 -32 -40 0
23 31 32 33 41 0
-23 -31 32 33 41 0
-23 31 -32 33 41 0
-23 31 32 -33 41 0
-23 31 32 33 -41 0
23 -31 -32 33 41 0
23 -31 32 -33 41 0
23 -31 32 33 -41 0
23 31 -32 -33 41 0
23 31 -32 33 -41 0
23 31 32 -33 -41 0
-23 -31 -32 -33 41 0
-23 -31 -32 33 -41 0
-23 -31 32 -33 -41 0
-23 31 -32 -33 -41 0
23 -31 -32 -33 -41 0
24 32 33 34 42 0
-24 -32 33 34 42 0
-24 32 -33 34 42 0
-24 32 33 -34 42 0
-24 32 33 34 -42 0
24 -32 -33 34 42 0
24 -32 33 -34 42 0
24 -32 33 34 -42 0
24 32 -33 -34 42 0
24 32 -33 34 -42 0
24 32 33 -34 -42 0
-24 -32 -33 -34 42 0
-24 -32 -33 34 -42 0
-24 -32 33 -34 -42 0
-24 32 -33 -34 -42 0
24 -32 -33 -34 -42 0
25 33 34 35 43 0
-25 -33 34 35 43 0
-25 33 -34 35 43 0
-25 33 34 -35 43 0
-25 33 34 35 -43 0
25 -33 -34 35 43 0
25 -33 34 -35 43 0
25 -33 34 35 -43 0
25 33 -34 -35 43 0
25 33 -34 35 -43 0
25 33 34 -35 -43 0
-25 -33 -34 -35 43 0
-25 -33 -34 35 -43 0
-25 -33 34 -35 -43 0
-25 33 -34 -35 -43 0
25 -33 -34 -35 -43 0
26 34 35 36 44 0
-26 -34 35 36 44 0
-26 34 -35 36 44 0
-26 34 35 -36 44 0
-26 34 35 36 -44 0
26 -34 -35 36 44 0
26 -34 35 -36 44 0
26 -34 35 36 -44 0
26 34 -35 -36 44 0
26 34 -35 36 -44 0
26 34 35 -36 -44 0
-26 -34 -35 -36 44 0
-26 -34 -35 36 -44 0
-26 -34 35 -36 -44 0
-26 34 -35 -36 -44 0
26 -34 -35 -36 -44 0
27 35 36 45 0
-27 -35 36 45 0
-27 35 -36 45 0
-27 35 36 -45 0
27 -35 -36 45 0
27 -35 36 -45 0
27 35 -36 -45 0
-27 -35 -36 -45 0
28 37 38 46 0
-28 -37 38 46 0
-28 37 -38 46 0
-28 37 38 -46 0
28 -37 -38 46 0
28 -37 38 -46 0
28 37 -38 -46 0
-28 -37 -38 -46 0
29 37 38 39 47 0
-29 -37 38 39 47 0
-29 37 -38 39 47 0
-29 37 38 -39 47 0
-29 37 38 39 -47 0
29 -37 -38 39 47 0
29 -37 38 -39 47 0
29 -37 38 39 -47 0
29 37 -38 -39 47 0
29 37 -38 39 -47 0
29 37 38 -39 -47 0
-29 -37 -38 -39 47 0
-29 -37 -38 39 -47 0
-29 -37 38 -39 -47 0
-29 37 -38 -39 -47 0
29 -37 -38 -39 -47 0
30 38 39 40 48 0
-30 -38 39 40 48 0
-30 38 -39 40 48 0
-30 38 39 -40 48 0
-30 38 39 40 -48 0
30 -38 -39 40 48 0
30 -38 39 -40 48 0
30 -38 39 40 -48 0
30 38 -39 -40 48 0
30 38 -39 40 -48 0
30 38 39 -40 -48 0
-30 -38 -39 -40 48 0
-30 -38 -39 40 -48 0
-30 -38 39 -40 -48 0
-30 38 -39 -40 -48 0
30 -38 -39 -40 -48 0
31 39 40 41 49 0
-31 -39 40 41 49 0
-31 39 -40 41 49 0
-31 39 40 -41 49 0
-31 39 40 41 -49 0
31 -39 -40 41 49 0
31 -39 40 -41 49 0
31 -39 40 41 -49 0
31 39 -40 -41 49 0
31 39 -40 41 -49 0
31 39 40 -41 -49 0
-31 -39 -40 -41 49 0
-31 -39 -40 41 -49 0
-31 -39 40 -41 -49 0
-31 39 -40 -41 -49 0
31 -39 -40 -41 -49 0
32 40 41 42 50 0
-32 -40 41 42 50 0
-32 40 -41 42 50 0
-32 40 41 -42 50 0
-32 40 41 42 -50 0
32 -40 -41 42 50 0
32 -40 41 -42 50 0
32 -40 41 42 -50 0
32 40 -41 -42 50 0
32 40 -41 42 -50 0
32 40 41 -42 -50 0
-32 -40 -41 -42 50 0
-32 -40 -41 42 -50 0
-32 -40 41 -42 -50 0
-32 40 -41 -42 -50 0
32 -40 -41 -42 -50 0
33 41 42 43 51 0
-33 -41 42 43 51 0
-33 41 -42 43 51 0
-33 41 42 -43 51 0
-33 41 42 43 -51 0
33 -41 -42 43 51 0
33 -41 42 -43 51 0
33 -41 42 43 -51 0
33 41 -42 -43 51 0
33 41 -42 43 -51 0
33 41 42 -43 -51 0
-33 -41 -42 -43 51 0
-33 -41 -42 43 -51 0
-33 -41 42 -43 -51 0
-33 41 -42 -43 -51 0
33 -41 -42 -43 -51 0
34 42 43 44 52 0
-34 -42 43 44 52 0
-34 42 -43 44 52 0
-34 42 43 -44 52 0
-34 42 43 44 -52 0
34 -42 -43 44 52 0
34 -42 43 -44 52 0
34 -42 43 44 -52 0
34 42 -43 -44 52 0
34 42 -43 44 -52 0
34 42 43 -44 -52 0
-34 -42 -43 -44 52 0
-34 -42 -43 44 -52 0
-34 -42 43 -44 -52 0
-34 42 -43 -44 -52 0
34 -42 -43 -44 -52 0
35 43 44 45 53 0
-35 -43 44 45 53 0
-35 43 -44 45 53 0
-35 43 44 -45 53 0
-35 43 44 45 -53 0
35 -43 -44 45 53 0
35 -43 44 -45 53 0
35 -43 44 45 -53 0
35 43 -44 -45 53 0
35 43 -44 45 -53 0
35 43 44 -45 -53 0
-35 -43 -44 -45 53 0
-35 -43 -44 45 -53 0
-35 -43 44 -45 -53 0
-35 43 -44 -45 -53 0
35 -43 -44 -45 -53 0
36 44 45 54 0
-36 -44 45 54 0
-36 44 -45 54 0
-36 44 45 -54 0
36 -44 -45 54 0
36 -44 45 -54 0
36 44 -45 -54 0
-36 -44 -45 -54 0
37 46 47 55 0
-37 -46 47 55 0
-37 46 -47 55 0
-37 46 47 -55 0
37 -46 -47 55 0
37 -46 47 -55 0
37 46 -47 -55 0
-37 -46 -47 -55 0
38 46 47 48 56 0
-38 -46 47 48 56 0
-38 46 -47 48 56 0
-38 46 47 -48 56 0
-38 46 47 48 -56 0
38 -46 -47 48 56 0
38 -46 47 -48 56 0
38 -46 47 48 -56 0
38 46 -47 -48 56 0
38 46 -47 48 -56 0
38 46 47 -48 -56 0
-38 -46 -47 -48 56 0
-38 -46 -47 48 -56 0
-38 -46 47 -48 -56 0
-38 46 -47 -48 -56 0
38 -46 -47 -48 -56 0
39 47 48 49 57 0
-39 -47 48 49 57 0
-39 47 -48 49 57 0
-39 47 48 -49 57 0
-39 47 48 49 -57 0
39 -47 -48 49 57 0
39 -47 48 -49 57 0
39 -47 48 49 -57 0
39 47 -48 -49 57 0
39 47 -48 49 -57 0
39 47 48 -49 -57 0
-39 -47 -48 -49 57 0
-39 -47 -48 49 -57 0
-39 -47 48 -49 -57 0
-39 47 -48 -49 -57 0
39 -47 -48 -49 -57 0
40 48 49 50 58 0
-40 -48 49 50 58 0
-40 48 -49 50 58 0
-40 48 49 -50 58 0
-40 48 49 50 -58 0
40 -48 -49 50 58 0
40 -48 49 -50 58 0
40 -48 49 50 -58 0
40 48 -49 -50 58 0
40 48 -49 50 -58 0
40 48 49 -50 -58 0
-40 -48 -49 -50 58 0
-40 -48 -49 50 -58 0
-40 -48 49 -50 -58 0
-40 48 -49 -50 -58 0
40 -48 -49 -50 -58 0
41 49 50 51 59 0
-41 -49 50 51 59 0
-41 49 -50 51 59 0
-41 49 50 -51 59 0
-41 49 50 51 -59 0
41 -49 -50 51 59 0
41 -49 50 -51 59 0
41 -49 50 51 -59 0
41 49 -50 -51 59 0
41 49 -50 51 -59 0
41 49 50 -51 -59 0
-41 -49 -50 -51 59 0
-41 -49 -50 51 -59 0
-41 -49 50 -51 -59 0
-41 49 -50 -51 -59 0
41 -49 -50 -51 -59 0
42 50 51 52 60 0
-42 -50 51 52 60 0
-42 50 -51 52 60 0
-42 50 51 -52 60 0
-42 50 51 52 -60 0
42 -50 -51 52 60 0
42 -50 51 -52 60 0
42 -50 51 52 -60 0
42 50 -51 -52 60 0
42 50 -51 52 -60 0
42 50 51 -52 -60 0
-42 -50 -51 -52 60 0
-42 -50 -51 52 -60 0
-42 -50 51 -52 -60 0
-42 50 -51 -52 -60 0
42 -50 -51 -52 -60 0
43 51 52 53 61 0
-43 -51 52 53 61 0
-43 51 -52 53 61 0
-43 51 52 -53 61 0
-43 51 52 53 -61 0
43 -51 -52 53 61 0
43 -51 52 -53 61 0
43 -51 52 53 -61 0
43 51 -52 -53 61 0
43 51 -52 53 -61 0
43 51 52 -53 -61 0
-43 -51 -52 -53 61 0
-43 -51 -52 53 -61 0
-43 -51 52 -53 -61 0
-43 51 -52 -53 -61 0
43 -51 -52 -53 -61 0
44 52 53 54 62 0
-44 -52 53 54 62 0
-44 52 -53 54 62 0
-44 52 53 -54 62 0
-44 52 53 54 -62 0
44 -52 -53 54 62 0
44 -52 53 -54 62 0
44 -52 53 54 -62 0
44 52 -53 -54 62 0
44 52 -53 54 -62 0
44 52 53 -54 -62 0
-44 -52 -53 -54 62 0
-44 -52 -53 54 -62 0
-44 -52 53 -54 -62 0
-44 52 -53 -54 -62 0
44 -52 -53 -54 -62 0
45 53 54 63 0
-45 -53 54 63 0
-45 53 -54 63 0
-45 53 54 -63 0
45 -53 -54 63 0
45 -53 54 -63 0
45 53 -54 -63 0
-45 -53 -54 -63 0
46 55 56 64 0
-46 -55 56 64 0
-46 55 -56 64 0
-46 55 56 -64 0
46 -55 -56 64 0
46 -55 56 -64 0
46 55 -56 -64 0
-46 -55 -56 -64 0
47 55 56 57 65 0
-47 -55 56 57 65 0
-47 55 -56 57 65 0
-47 55 56 -57 65 0
-47 55 56 57 -65 0
47 -55 -56 57 65 0
47 -55 56 -57 65 0
47 -55 56 57 -65 0
47 55 -56 -57 65 0
47 55 -56 57 -65 0
47 55 56 -57 -65 0
-47 -55 -56 -57 65 0
-47 -55 -56 57 -65 0
-47 -55 56 -57 -65 0
-47 55 -56 -57 -65 0
47 -55 -56 -57 -65 0
48 56 57 58 66 0
-48 -56 57 58 66 0
-48 56 -57 58 66 0
-48 56 57 -58 66 0
-48 56 57 58 -66 0
48 -56 -57 58 66 0
48 -56 57 -58 66 0
48 -56 57 58 -66 0
48 56 -57 -58 66 0
48 56 -57 58 -66 0
48 56 57 -58 -66 0
-48 -56 -57 -58 66 0
-48 -56 -57 58 -66 0
-48 -56 57 -58 -66 0
-48 56 -57 -58 -66 0
48 -56 -57 -58 -66 0
49 57 58 59 67 0
-49 -57 58 59 67 0
-49 57 -58 59 67 0
-49 57 58 -59 67 0
-49 57 58 59 -67 0
49 -57 -58 59 67 0
49 -57 58 -59 67 0
49 -57 58 59 -67 0
49 57 -58 -59 67 0
49 57 -58 59 -67 0
49 57 58 -59 -67 0
-49 -57 -58 -59 67 0
-49 -57 -58 59 -67 0
-49 -57 58 -59 -67 0
-49 57 -58 -59 -67 0
49 -57 -58 -59 -67 0
50 58 59 60 68 0
-50 -58 59 60 68 0
-50 58 -59 60 68 0
-50 58 59 -60 68 0
-50 58 59 60 -68 0
50 -58 -59 60 68 0
50 -58 59 -60 68 0
50 -58 59 60 -68 0
50 58 -59 -60 68 0
50 58 -59 60 -68 0
50 58 59 -60 -68 0
-50 -58 -59 -60 68 0
-50 -58 -59 60 -68 0
-50 -58 59 -60 -68 0
-50 58 -59 -60 -68 0
50 -58 -59 -60 -68 0
51 59 60 61 69 0
-51 -59 60 61 69 0
-51 59 -60 61 69 0
-51 59 60 -61 69 0
-51 59 60 61 -69 0
51 -59 -60 61 69 0
51 -59 60 -61 69 0
51 -59 60 61 -69 0
51 59 -60 -61 69 0
51 59 -60 61 -69 0
51 59 60 -61 -69 0
-51 -59 -60 -61 69 0
-51 -59 -60 61 -69 0
-51 -59 60 -61 -69 0
-51 59 -60 -61 -69 0
51 -59 -60 -61 -69 0
52 60 61 62 70 0
-52 -60 61 62 70 0
-52 60 -61 62 70 0
-52 60 61 -62 70 0
-52 60 61 62 -70 0
52 -60 -61 62 70 0
52 -60 61 -62 70 0
52 -60 61 62 -70 0
52 60 -61 -62 70 0
52 60 -61 62 -70 0
52 60 61 -62 -70 0
-52 -60 -61 -62 70 0
-52 -60 -61 62 -70 0
-52 -60 61 -62 -70 0
-52 60 -61 -62 -70 0
52 -60 -61 -62 -70 0
53 61 62 63 71 0
-53 -61 62 63 71 0
-53 61 -62 63 71 0
-53 61 62 -63 71 0
-53 61 62 63 -71 0
53 -61 -62 63 71 0
53 -61 62 -63 71 0
53 -61 62 63 -71 0
53 61 -62 -63 71 0
53 61 -62 63 -71 0
53 61 62 -63 -71 0
-53 -61 -62 -63 71 0
-53 -61 -62 63 -71 0
-53 -61 62 -63 -71 0
-53 61 -62 -63 -71 0
53 -61 -62 -63 -71 0
54 62 63 72 0
-54 -62 63 72 0
-54 62 -63 72 0
-54 62 63 -72 0
54 -62 -63 72 0
54 -62 63 -72 0
54 62 -63 -72 0
-54 -62 -63 -72 0
55 64 65 73 0
-55 -64 65 73 0
-55 64 -65 73 0
-55 64 65 -73 0
55 -64 -65 73 0
55 -64 65 -73 0
55 64 -65 -73 0
-55 -64 -65 -73 0
56 64 65 66 74 0
-56 -64 65 66 74 0
-56 64 -65 66 74 0
-56 64 65 -66 74 0
-56 64 65 66 -74 0
56 -64 -65 66 74 0
56 -64 65 -66 74 0
56 -64 65 66 -74 0
56 64 -65 -66 74 0
56 64 -65 66 -74 0
56 64 65 -66 -74 0
-56 -64 -65 -66 74 0
-56 -64 -65 66 -74 0
-56 -64 65 -66 -74 0
-56 64 -65 -66 -74 0
56 -64 -65 -66 -74 0
57 65 66 67 75 0
-57 -65 66 67 75 0
-57 65 -66 67 75 0
-57 65 66 -67 75 0
-57 65 66 67 -75 0
57 -65 -66 67 75 0
57 -65 66 -67 75 0
57 -65 66 67 -75 0
57 65 -66 -67 75 0
57 65 -66 67 -75 0
57 65 66 -67 -75 0
-57 -65 -66 -67 75 0
-57 -65 -66 67 -75 0
-57 -65 66 -67 -75 0
-57 65 -66 -67 -75 0
57 -65 -66 -67 -75 0
58 66 67 68 76 0
-58 -66 67 68 76 0
-58 66 -67 68 76 0
-58 66 67 -68 76 0
-58 66 67 68 -76 0
58 -66 -67 68 76 0
58 -66 67 -68 76 0
58 -66 67 68 -76 0
58 66 -67 -68 76 0
58 66 -67 68 -76 0
58 66 67 -68 -76 0
-58 -66 -67 -68 76 0
-58 -66 -67 68 -76 0
-58 -66 67 -68 -76 0
-58 66 -67 -68 -76 0
58 -66 -67 -68 -76 0
59 67 68 69 77 0
-59 -67 68 69 77 0
-59 67 -68 69 77 0
-59 67 68 -69 77 0
-59 67 68 69 -77 0
59 -67 -68 69 77 0
59 -67 68 -69 77 0
59 -67 68 69 -77 0
59 67 -68 -69 77 0
59 67 -68 69 -77 0
59 67 68 -69 -77 0
-59 -67 -68 -69 77 0
-59 -67 -68 69 -77 0
-59 -67 68 -69 -77 0
-59 67 -68 -69 -77 0
59 -67 -68 -69 -77 0
60 68 69 70 78 0
-60 -68 69 70 78 0
-60 68 -69 70 78 0
-60 68 69 -70 78 0
-60 68 69 70 -78 0
60 -68 -69 70 78 0
60 -68 69 -70 78 0
60 -68 69 70 -78 0
60 68 -69 -70 78 0
60 68 -69 70 -78 0
60 68 69 -70 -78 0
-60 -68 -69 -70 78 0
-60 -68 -69 70 -78 0
-60 -68 69 -70 -78 0
-60 68 -69 -70 -78 0
60 -68 -69 -70 -78 0
61 69 70 71 79 0
-61 -69 70 71 79 0
-61 69 -70 71 79 0
-61 69 70 -71 79 0
-61 69 70 71 -79 0
61 -69 -70 71 79 0
61 -69 70 -71 79 0
61 -69 70 71 -79 0
61 69 -70 -71 79 0
61 69 -70 71 -79 0
61 69 70 -71 -79 0
-61 -69 -70 -71 79 0
-61 -69 -70 71 -79 0
-61 -69 70 -71 -79 0
-61 69 -70 -71 -79 0
61 -69 -70 -71 -79 0
62 70 71 72 80 0
-62 -70 71 72 80 0
-62 70 -71 72 80 0
-62 70 71 -72 80 0
-62 70 71 72 -80 0
62 -70 -71 72 80 0
62 -70 71 -72 80 0
62 -70 71 72 -80 0
62 70 -71 -72 80 0
62 70 -71 72 -80 0
62 70 71 -72 -80 0
-62 -70 -71 -72 80 0
-62 -70 -71 72 -80 0
-62 -70 71 -72 -80 0
-62 70 -71 -72 -80 0
62 -70 -71 -72 -80 0
63 71 72 81 0
-63 -71 72 81 0
-63 71 -72 81 0
-63 71 72 -81 0
63 -71 -72 81 0
63 -71 72 -81 0
63 71 -72 -81 0
-63 -71 -72 -81 0
64 73 74 0
-64 -73 74 0
-64 73 -74 0
64 -73 -74 0
65 73 74 75 0
-65 -73 74 75 0
-65 73 -74 75 0
-65 73 74 -75 0
65 -73 -74 75 0
65 -73 74 -75 0
65 73 -74 -75 0
-65 -73 -74 -75 0
66 74 75 76 0
-66 -74 75 76 0
-66 74 -75 76 0
-66 74 75 -76 0
66 -74 -75 76 0
66 -74 75 -76 0
66 74 -75 -76 0
-66 -74 -75 -76 0
67 75 76 77 0
-67 -75 76 77 0
-67 75 -76 77 0
-67 75 76 -77 0
67 -75 -76 77 0
67 -75 76 -77 0
67 75 -76 -77 0
-67 -75 -76 -77 0
68 76 77 78 0
-68 -76 77 78 0
-68 76 -77 78 0
-68 76 77 -78 0
68 -76 -77 78 0
68 -76 77 -78 0
68 76 -77 -78 0
-68 -76 -77 -78 0
69 77 78 79 0
-69 -77 78 79 0
-69 77 -78 79 0
-69 77 78 -79 0
69 -77 -78 79 0
69 -77 78 -79 0
69 77 -78 -79 0
-69 -77 -78 -79 0
70 78 79 80 0
-70 -78 79 80 0
-70 78 -79 80 0
-70 78 79 -80 0
70 -78 -79 80 0
70 -78 79 -80 0
70 78 -79 -80 0
-70 -78 -79 -80 0
71 79 80 81 0
-71 -79 80 81 0
-71 79 -80 81 0
-71 79 80 -81 0
71 -79 -80 81 0
71 -79 80 -81 0
71 79 -80 -81 0
-71 -79 -80 -81 0
72 80 81 0
-72 -80 81 0
-72 80 -81 0
72 -80 -81 0
